Minimize
 + 8.000000 x6 + 8.000000 x7 + 8.000000 x8 + 8.000000 x9 + 8.000000 x10 + 8.000000 x11 + 8.000000 x12 + 8.000000 x13 + 8.000000 x14 + 8.000000 x15 + 6.000000 x16 + 6.000000 x17 + 6.000000 x18 + 6.000000 x19 + 6.000000 x20 + 6.000000 x21 + 6.000000 x22 + 6.000000 x23 + 6.000000 x24 + 6.000000 x25 + 6.000000 x26 + 6.000000 x27 + 6.000000 x28 + 6.000000 x29 + 6.000000 x30 + 6.000000 x31 + 6.000000 x32 + 6.000000 x33 + 6.000000 x34 + 6.000000 x35 + 6.000000 x36 + 6.000000 x37 + 6.000000 x38 + 6.000000 x39 + 6.000000 x40
Subject To
 + 1.000000 y6,1 + 2.000000 y7,1 + 2.000000 y8,1 + 2.000000 y9,1 + 2.000000 y10,1 + 2.000000 y11,1 + 2.000000 y12,1 + 2.000000 y13,1 + 1.000000 y14,1 + 1.000000 y15,1 + 2.000000 y16,1 + 2.000000 y17,1 + 2.000000 y18,1 + 2.000000 y19,1 + 2.000000 y36,1 + 2.000000 y37,1 + 2.000000 y38,1 + 2.000000 y39,1 + 2.000000 y40,1 <= 1.000000 
 + 2.000000 y6,2 + 1.000000 y7,2 + 1.000000 y8,2 + 2.000000 y9,2 + 2.000000 y10,2 + 2.000000 y11,2 + 2.000000 y12,2 + 2.000000 y13,2 + 2.000000 y14,2 + 2.000000 y15,2 + 2.000000 y19,2 + 2.000000 y20,2 + 2.000000 y21,2 + 2.000000 y22,2 <= 1.000000 
 + 2.000000 y6,3 + 2.000000 y7,3 + 1.000000 y8,3 + 1.000000 y9,3 + 1.000000 y10,3 + 2.000000 y11,3 + 2.000000 y12,3 + 2.000000 y13,3 + 2.000000 y14,3 + 2.000000 y15,3 + 2.000000 y21,3 + 2.000000 y22,3 + 2.000000 y23,3 + 2.000000 y24,3 + 2.000000 y25,3 + 2.000000 y26,3 + 2.000000 y27,3 <= 1.000000 
 + 2.000000 y6,4 + 2.000000 y7,4 + 2.000000 y8,4 + 2.000000 y9,4 + 1.000000 y10,4 + 1.000000 y11,4 + 1.000000 y12,4 + 1.000000 y13,4 + 2.000000 y14,4 + 2.000000 y15,4 + 2.000000 y26,4 + 2.000000 y27,4 + 2.000000 y28,4 + 2.000000 y29,4 + 2.000000 y30,4 + 2.000000 y31,4 + 2.000000 y32,4 + 2.000000 y33,4 + 2.000000 y34,4 + 2.000000 y35,4 <= 1.000000 
 + 2.000000 y6,5 + 2.000000 y7,5 + 2.000000 y8,5 + 2.000000 y9,5 + 2.000000 y10,5 + 2.000000 y11,5 + 1.000000 y12,5 + 1.000000 y13,5 + 1.000000 y14,5 + 2.000000 y15,5 + 2.000000 y30,5 + 2.000000 y31,5 + 2.000000 y32,5 + 2.000000 y33,5 + 2.000000 y34,5 + 2.000000 y35,5 + 2.000000 y36,5 + 2.000000 y37,5 + 2.000000 y38,5 <= 1.000000 
 + 1.000000 y7,6 + 2.000000 y14,6 + 2.000000 y15,6 + 1.000000 y16,6 + 1.000000 y17,6 + 1.000000 y18,6 + 1.000000 y19,6 + 2.000000 y20,6 <= 1.000000 
 + 1.000000 y6,7 + 2.000000 y8,7 + 2.000000 y16,7 + 2.000000 y17,7 + 2.000000 y18,7 + 1.000000 y19,7 + 1.000000 y20,7 <= 1.000000 
 + 2.000000 y7,8 + 1.000000 y9,8 + 2.000000 y10,8 + 1.000000 y21,8 + 1.000000 y22,8 + 2.000000 y23,8 + 2.000000 y24,8 + 2.000000 y25,8 <= 1.000000 
 + 1.000000 y8,9 + 1.000000 y10,9 + 2.000000 y11,9 + 2.000000 y21,9 + 1.000000 y22,9 + 1.000000 y23,9 + 1.000000 y24,9 + 1.000000 y25,9 + 2.000000 y26,9 + 2.000000 y27,9 <= 1.000000 
 + 2.000000 y8,10 + 1.000000 y9,10 + 1.000000 y11,10 + 2.000000 y12,10 + 2.000000 y13,10 + 2.000000 y22,10 + 2.000000 y23,10 + 2.000000 y24,10 + 2.000000 y25,10 + 1.000000 y26,10 + 1.000000 y27,10 + 2.000000 y28,10 + 2.000000 y29,10 + 2.000000 y30,10 <= 1.000000 
 + 2.000000 y9,11 + 1.000000 y10,11 + 2.000000 y12,11 + 2.000000 y13,11 + 2.000000 y26,11 + 1.000000 y27,11 + 1.000000 y28,11 + 1.000000 y29,11 + 1.000000 y30,11 <= 1.000000 
 + 2.000000 y10,12 + 2.000000 y11,12 + 2.000000 y13,12 + 2.000000 y14,12 + 1.000000 y30,12 + 1.000000 y31,12 + 1.000000 y32,12 <= 1.000000 
 + 2.000000 y10,13 + 2.000000 y11,13 + 2.000000 y12,13 + 1.000000 y14,13 + 2.000000 y15,13 + 1.000000 y33,13 + 1.000000 y34,13 + 1.000000 y35,13 + 2.000000 y36,13 + 2.000000 y37,13 + 2.000000 y38,13 <= 1.000000 
 + 2.000000 y6,14 + 2.000000 y12,14 + 1.000000 y13,14 + 1.000000 y15,14 + 2.000000 y16,14 + 2.000000 y33,14 + 2.000000 y34,14 + 2.000000 y35,14 + 1.000000 y36,14 + 1.000000 y37,14 + 1.000000 y38,14 + 2.000000 y39,14 + 2.000000 y40,14 <= 1.000000 
 + 2.000000 y6,15 + 2.000000 y13,15 + 1.000000 y14,15 + 1.000000 y16,15 + 2.000000 y36,15 + 2.000000 y37,15 + 2.000000 y38,15 + 1.000000 y39,15 + 1.000000 y40,15 <= 1.000000 
 + 1.000000 y6,16 + 2.000000 y7,16 + 2.000000 y14,16 + 1.000000 y15,16 + 2.000000 y17,16 + 2.000000 y18,16 + 2.000000 y19,16 + 2.000000 y39,16 + 2.000000 y40,16 <= 1.000000 
 + 1.000000 y6,17 + 2.000000 y7,17 + 2.000000 y16,17 + 2.000000 y18,17 + 2.000000 y19,17 <= 1.000000 
 + 1.000000 y6,18 + 2.000000 y7,18 + 2.000000 y16,18 + 2.000000 y17,18 + 2.000000 y19,18 <= 1.000000 
 + 1.000000 y6,19 + 1.000000 y7,19 + 2.000000 y16,19 + 2.000000 y17,19 + 2.000000 y18,19 + 2.000000 y20,19 <= 1.000000 
 + 2.000000 y6,20 + 1.000000 y7,20 + 2.000000 y19,20 <= 1.000000 
 + 1.000000 y8,21 + 2.000000 y9,21 + 2.000000 y22,21 <= 1.000000 
 + 1.000000 y8,22 + 1.000000 y9,22 + 2.000000 y10,22 + 2.000000 y21,22 + 2.000000 y23,22 + 2.000000 y24,22 + 2.000000 y25,22 <= 1.000000 
 + 2.000000 y8,23 + 1.000000 y9,23 + 2.000000 y10,23 + 2.000000 y22,23 + 2.000000 y24,23 + 2.000000 y25,23 <= 1.000000 
 + 2.000000 y8,24 + 1.000000 y9,24 + 2.000000 y10,24 + 2.000000 y22,24 + 2.000000 y23,24 + 2.000000 y25,24 <= 1.000000 
 + 2.000000 y8,25 + 1.000000 y9,25 + 2.000000 y10,25 + 2.000000 y22,25 + 2.000000 y23,25 + 2.000000 y24,25 <= 1.000000 
 + 2.000000 y9,26 + 1.000000 y10,26 + 2.000000 y11,26 + 2.000000 y27,26 <= 1.000000 
 + 2.000000 y9,27 + 1.000000 y10,27 + 1.000000 y11,27 + 2.000000 y26,27 + 2.000000 y28,27 + 2.000000 y29,27 + 2.000000 y30,27 <= 1.000000 
 + 2.000000 y10,28 + 1.000000 y11,28 + 2.000000 y27,28 + 2.000000 y29,28 + 2.000000 y30,28 <= 1.000000 
 + 2.000000 y10,29 + 1.000000 y11,29 + 2.000000 y27,29 + 2.000000 y28,29 + 2.000000 y30,29 <= 1.000000 
 + 2.000000 y10,30 + 1.000000 y11,30 + 1.000000 y12,30 + 2.000000 y27,30 + 2.000000 y28,30 + 2.000000 y29,30 + 2.000000 y31,30 + 2.000000 y32,30 <= 1.000000 
 + 1.000000 y12,31 + 2.000000 y30,31 + 2.000000 y32,31 <= 1.000000 
 + 1.000000 y12,32 + 2.000000 y30,32 + 2.000000 y31,32 <= 1.000000 
 + 1.000000 y13,33 + 2.000000 y14,33 + 2.000000 y34,33 + 2.000000 y35,33 <= 1.000000 
 + 1.000000 y13,34 + 2.000000 y14,34 + 2.000000 y33,34 + 2.000000 y35,34 <= 1.000000 
 + 1.000000 y13,35 + 2.000000 y14,35 + 2.000000 y33,35 + 2.000000 y34,35 <= 1.000000 
 + 2.000000 y13,36 + 1.000000 y14,36 + 2.000000 y15,36 + 2.000000 y37,36 + 2.000000 y38,36 <= 1.000000 
 + 2.000000 y13,37 + 1.000000 y14,37 + 2.000000 y15,37 + 2.000000 y36,37 + 2.000000 y38,37 <= 1.000000 
 + 2.000000 y13,38 + 1.000000 y14,38 + 2.000000 y15,38 + 2.000000 y36,38 + 2.000000 y37,38 <= 1.000000 
 + 2.000000 y14,39 + 1.000000 y15,39 + 2.000000 y16,39 + 2.000000 y40,39 <= 1.000000 
 + 2.000000 y14,40 + 1.000000 y15,40 + 2.000000 y16,40 + 2.000000 y39,40 <= 1.000000 
 + y1,1 + y1,2 + y1,3 + y1,4 + y1,5 + y1,6 + y1,7 + y1,8 + y1,9 + y1,10 + y1,11 + y1,12 + y1,13 + y1,14 + y1,15 + y1,16 + y1,17 + y1,18 + y1,19 + y1,20 + y1,21 + y1,22 + y1,23 + y1,24 + y1,25 + y1,26 + y1,27 + y1,28 + y1,29 + y1,30 + y1,31 + y1,32 + y1,33 + y1,34 + y1,35 + y1,36 + y1,37 + y1,38 + y1,39 + y1,40 - x1 = 1
 + y2,1 + y2,2 + y2,3 + y2,4 + y2,5 + y2,6 + y2,7 + y2,8 + y2,9 + y2,10 + y2,11 + y2,12 + y2,13 + y2,14 + y2,15 + y2,16 + y2,17 + y2,18 + y2,19 + y2,20 + y2,21 + y2,22 + y2,23 + y2,24 + y2,25 + y2,26 + y2,27 + y2,28 + y2,29 + y2,30 + y2,31 + y2,32 + y2,33 + y2,34 + y2,35 + y2,36 + y2,37 + y2,38 + y2,39 + y2,40 - x2 = 1
 + y3,1 + y3,2 + y3,3 + y3,4 + y3,5 + y3,6 + y3,7 + y3,8 + y3,9 + y3,10 + y3,11 + y3,12 + y3,13 + y3,14 + y3,15 + y3,16 + y3,17 + y3,18 + y3,19 + y3,20 + y3,21 + y3,22 + y3,23 + y3,24 + y3,25 + y3,26 + y3,27 + y3,28 + y3,29 + y3,30 + y3,31 + y3,32 + y3,33 + y3,34 + y3,35 + y3,36 + y3,37 + y3,38 + y3,39 + y3,40 - x3 = 1
 + y4,1 + y4,2 + y4,3 + y4,4 + y4,5 + y4,6 + y4,7 + y4,8 + y4,9 + y4,10 + y4,11 + y4,12 + y4,13 + y4,14 + y4,15 + y4,16 + y4,17 + y4,18 + y4,19 + y4,20 + y4,21 + y4,22 + y4,23 + y4,24 + y4,25 + y4,26 + y4,27 + y4,28 + y4,29 + y4,30 + y4,31 + y4,32 + y4,33 + y4,34 + y4,35 + y4,36 + y4,37 + y4,38 + y4,39 + y4,40 - x4 = 1
 + y5,1 + y5,2 + y5,3 + y5,4 + y5,5 + y5,6 + y5,7 + y5,8 + y5,9 + y5,10 + y5,11 + y5,12 + y5,13 + y5,14 + y5,15 + y5,16 + y5,17 + y5,18 + y5,19 + y5,20 + y5,21 + y5,22 + y5,23 + y5,24 + y5,25 + y5,26 + y5,27 + y5,28 + y5,29 + y5,30 + y5,31 + y5,32 + y5,33 + y5,34 + y5,35 + y5,36 + y5,37 + y5,38 + y5,39 + y5,40 - x5 = 1
 + y6,1 + y6,2 + y6,3 + y6,4 + y6,5 + y6,6 + y6,7 + y6,8 + y6,9 + y6,10 + y6,11 + y6,12 + y6,13 + y6,14 + y6,15 + y6,16 + y6,17 + y6,18 + y6,19 + y6,20 + y6,21 + y6,22 + y6,23 + y6,24 + y6,25 + y6,26 + y6,27 + y6,28 + y6,29 + y6,30 + y6,31 + y6,32 + y6,33 + y6,34 + y6,35 + y6,36 + y6,37 + y6,38 + y6,39 + y6,40 - x6 = 1
 + y7,1 + y7,2 + y7,3 + y7,4 + y7,5 + y7,6 + y7,7 + y7,8 + y7,9 + y7,10 + y7,11 + y7,12 + y7,13 + y7,14 + y7,15 + y7,16 + y7,17 + y7,18 + y7,19 + y7,20 + y7,21 + y7,22 + y7,23 + y7,24 + y7,25 + y7,26 + y7,27 + y7,28 + y7,29 + y7,30 + y7,31 + y7,32 + y7,33 + y7,34 + y7,35 + y7,36 + y7,37 + y7,38 + y7,39 + y7,40 - x7 = 1
 + y8,1 + y8,2 + y8,3 + y8,4 + y8,5 + y8,6 + y8,7 + y8,8 + y8,9 + y8,10 + y8,11 + y8,12 + y8,13 + y8,14 + y8,15 + y8,16 + y8,17 + y8,18 + y8,19 + y8,20 + y8,21 + y8,22 + y8,23 + y8,24 + y8,25 + y8,26 + y8,27 + y8,28 + y8,29 + y8,30 + y8,31 + y8,32 + y8,33 + y8,34 + y8,35 + y8,36 + y8,37 + y8,38 + y8,39 + y8,40 - x8 = 1
 + y9,1 + y9,2 + y9,3 + y9,4 + y9,5 + y9,6 + y9,7 + y9,8 + y9,9 + y9,10 + y9,11 + y9,12 + y9,13 + y9,14 + y9,15 + y9,16 + y9,17 + y9,18 + y9,19 + y9,20 + y9,21 + y9,22 + y9,23 + y9,24 + y9,25 + y9,26 + y9,27 + y9,28 + y9,29 + y9,30 + y9,31 + y9,32 + y9,33 + y9,34 + y9,35 + y9,36 + y9,37 + y9,38 + y9,39 + y9,40 - x9 = 1
 + y10,1 + y10,2 + y10,3 + y10,4 + y10,5 + y10,6 + y10,7 + y10,8 + y10,9 + y10,10 + y10,11 + y10,12 + y10,13 + y10,14 + y10,15 + y10,16 + y10,17 + y10,18 + y10,19 + y10,20 + y10,21 + y10,22 + y10,23 + y10,24 + y10,25 + y10,26 + y10,27 + y10,28 + y10,29 + y10,30 + y10,31 + y10,32 + y10,33 + y10,34 + y10,35 + y10,36 + y10,37 + y10,38 + y10,39 + y10,40 - x10 = 1
 + y11,1 + y11,2 + y11,3 + y11,4 + y11,5 + y11,6 + y11,7 + y11,8 + y11,9 + y11,10 + y11,11 + y11,12 + y11,13 + y11,14 + y11,15 + y11,16 + y11,17 + y11,18 + y11,19 + y11,20 + y11,21 + y11,22 + y11,23 + y11,24 + y11,25 + y11,26 + y11,27 + y11,28 + y11,29 + y11,30 + y11,31 + y11,32 + y11,33 + y11,34 + y11,35 + y11,36 + y11,37 + y11,38 + y11,39 + y11,40 - x11 = 1
 + y12,1 + y12,2 + y12,3 + y12,4 + y12,5 + y12,6 + y12,7 + y12,8 + y12,9 + y12,10 + y12,11 + y12,12 + y12,13 + y12,14 + y12,15 + y12,16 + y12,17 + y12,18 + y12,19 + y12,20 + y12,21 + y12,22 + y12,23 + y12,24 + y12,25 + y12,26 + y12,27 + y12,28 + y12,29 + y12,30 + y12,31 + y12,32 + y12,33 + y12,34 + y12,35 + y12,36 + y12,37 + y12,38 + y12,39 + y12,40 - x12 = 1
 + y13,1 + y13,2 + y13,3 + y13,4 + y13,5 + y13,6 + y13,7 + y13,8 + y13,9 + y13,10 + y13,11 + y13,12 + y13,13 + y13,14 + y13,15 + y13,16 + y13,17 + y13,18 + y13,19 + y13,20 + y13,21 + y13,22 + y13,23 + y13,24 + y13,25 + y13,26 + y13,27 + y13,28 + y13,29 + y13,30 + y13,31 + y13,32 + y13,33 + y13,34 + y13,35 + y13,36 + y13,37 + y13,38 + y13,39 + y13,40 - x13 = 1
 + y14,1 + y14,2 + y14,3 + y14,4 + y14,5 + y14,6 + y14,7 + y14,8 + y14,9 + y14,10 + y14,11 + y14,12 + y14,13 + y14,14 + y14,15 + y14,16 + y14,17 + y14,18 + y14,19 + y14,20 + y14,21 + y14,22 + y14,23 + y14,24 + y14,25 + y14,26 + y14,27 + y14,28 + y14,29 + y14,30 + y14,31 + y14,32 + y14,33 + y14,34 + y14,35 + y14,36 + y14,37 + y14,38 + y14,39 + y14,40 - x14 = 1
 + y15,1 + y15,2 + y15,3 + y15,4 + y15,5 + y15,6 + y15,7 + y15,8 + y15,9 + y15,10 + y15,11 + y15,12 + y15,13 + y15,14 + y15,15 + y15,16 + y15,17 + y15,18 + y15,19 + y15,20 + y15,21 + y15,22 + y15,23 + y15,24 + y15,25 + y15,26 + y15,27 + y15,28 + y15,29 + y15,30 + y15,31 + y15,32 + y15,33 + y15,34 + y15,35 + y15,36 + y15,37 + y15,38 + y15,39 + y15,40 - x15 = 1
 + y16,1 + y16,2 + y16,3 + y16,4 + y16,5 + y16,6 + y16,7 + y16,8 + y16,9 + y16,10 + y16,11 + y16,12 + y16,13 + y16,14 + y16,15 + y16,16 + y16,17 + y16,18 + y16,19 + y16,20 + y16,21 + y16,22 + y16,23 + y16,24 + y16,25 + y16,26 + y16,27 + y16,28 + y16,29 + y16,30 + y16,31 + y16,32 + y16,33 + y16,34 + y16,35 + y16,36 + y16,37 + y16,38 + y16,39 + y16,40 - x16 = 1
 + y17,1 + y17,2 + y17,3 + y17,4 + y17,5 + y17,6 + y17,7 + y17,8 + y17,9 + y17,10 + y17,11 + y17,12 + y17,13 + y17,14 + y17,15 + y17,16 + y17,17 + y17,18 + y17,19 + y17,20 + y17,21 + y17,22 + y17,23 + y17,24 + y17,25 + y17,26 + y17,27 + y17,28 + y17,29 + y17,30 + y17,31 + y17,32 + y17,33 + y17,34 + y17,35 + y17,36 + y17,37 + y17,38 + y17,39 + y17,40 - x17 = 1
 + y18,1 + y18,2 + y18,3 + y18,4 + y18,5 + y18,6 + y18,7 + y18,8 + y18,9 + y18,10 + y18,11 + y18,12 + y18,13 + y18,14 + y18,15 + y18,16 + y18,17 + y18,18 + y18,19 + y18,20 + y18,21 + y18,22 + y18,23 + y18,24 + y18,25 + y18,26 + y18,27 + y18,28 + y18,29 + y18,30 + y18,31 + y18,32 + y18,33 + y18,34 + y18,35 + y18,36 + y18,37 + y18,38 + y18,39 + y18,40 - x18 = 1
 + y19,1 + y19,2 + y19,3 + y19,4 + y19,5 + y19,6 + y19,7 + y19,8 + y19,9 + y19,10 + y19,11 + y19,12 + y19,13 + y19,14 + y19,15 + y19,16 + y19,17 + y19,18 + y19,19 + y19,20 + y19,21 + y19,22 + y19,23 + y19,24 + y19,25 + y19,26 + y19,27 + y19,28 + y19,29 + y19,30 + y19,31 + y19,32 + y19,33 + y19,34 + y19,35 + y19,36 + y19,37 + y19,38 + y19,39 + y19,40 - x19 = 1
 + y20,1 + y20,2 + y20,3 + y20,4 + y20,5 + y20,6 + y20,7 + y20,8 + y20,9 + y20,10 + y20,11 + y20,12 + y20,13 + y20,14 + y20,15 + y20,16 + y20,17 + y20,18 + y20,19 + y20,20 + y20,21 + y20,22 + y20,23 + y20,24 + y20,25 + y20,26 + y20,27 + y20,28 + y20,29 + y20,30 + y20,31 + y20,32 + y20,33 + y20,34 + y20,35 + y20,36 + y20,37 + y20,38 + y20,39 + y20,40 - x20 = 1
 + y21,1 + y21,2 + y21,3 + y21,4 + y21,5 + y21,6 + y21,7 + y21,8 + y21,9 + y21,10 + y21,11 + y21,12 + y21,13 + y21,14 + y21,15 + y21,16 + y21,17 + y21,18 + y21,19 + y21,20 + y21,21 + y21,22 + y21,23 + y21,24 + y21,25 + y21,26 + y21,27 + y21,28 + y21,29 + y21,30 + y21,31 + y21,32 + y21,33 + y21,34 + y21,35 + y21,36 + y21,37 + y21,38 + y21,39 + y21,40 - x21 = 1
 + y22,1 + y22,2 + y22,3 + y22,4 + y22,5 + y22,6 + y22,7 + y22,8 + y22,9 + y22,10 + y22,11 + y22,12 + y22,13 + y22,14 + y22,15 + y22,16 + y22,17 + y22,18 + y22,19 + y22,20 + y22,21 + y22,22 + y22,23 + y22,24 + y22,25 + y22,26 + y22,27 + y22,28 + y22,29 + y22,30 + y22,31 + y22,32 + y22,33 + y22,34 + y22,35 + y22,36 + y22,37 + y22,38 + y22,39 + y22,40 - x22 = 1
 + y23,1 + y23,2 + y23,3 + y23,4 + y23,5 + y23,6 + y23,7 + y23,8 + y23,9 + y23,10 + y23,11 + y23,12 + y23,13 + y23,14 + y23,15 + y23,16 + y23,17 + y23,18 + y23,19 + y23,20 + y23,21 + y23,22 + y23,23 + y23,24 + y23,25 + y23,26 + y23,27 + y23,28 + y23,29 + y23,30 + y23,31 + y23,32 + y23,33 + y23,34 + y23,35 + y23,36 + y23,37 + y23,38 + y23,39 + y23,40 - x23 = 1
 + y24,1 + y24,2 + y24,3 + y24,4 + y24,5 + y24,6 + y24,7 + y24,8 + y24,9 + y24,10 + y24,11 + y24,12 + y24,13 + y24,14 + y24,15 + y24,16 + y24,17 + y24,18 + y24,19 + y24,20 + y24,21 + y24,22 + y24,23 + y24,24 + y24,25 + y24,26 + y24,27 + y24,28 + y24,29 + y24,30 + y24,31 + y24,32 + y24,33 + y24,34 + y24,35 + y24,36 + y24,37 + y24,38 + y24,39 + y24,40 - x24 = 1
 + y25,1 + y25,2 + y25,3 + y25,4 + y25,5 + y25,6 + y25,7 + y25,8 + y25,9 + y25,10 + y25,11 + y25,12 + y25,13 + y25,14 + y25,15 + y25,16 + y25,17 + y25,18 + y25,19 + y25,20 + y25,21 + y25,22 + y25,23 + y25,24 + y25,25 + y25,26 + y25,27 + y25,28 + y25,29 + y25,30 + y25,31 + y25,32 + y25,33 + y25,34 + y25,35 + y25,36 + y25,37 + y25,38 + y25,39 + y25,40 - x25 = 1
 + y26,1 + y26,2 + y26,3 + y26,4 + y26,5 + y26,6 + y26,7 + y26,8 + y26,9 + y26,10 + y26,11 + y26,12 + y26,13 + y26,14 + y26,15 + y26,16 + y26,17 + y26,18 + y26,19 + y26,20 + y26,21 + y26,22 + y26,23 + y26,24 + y26,25 + y26,26 + y26,27 + y26,28 + y26,29 + y26,30 + y26,31 + y26,32 + y26,33 + y26,34 + y26,35 + y26,36 + y26,37 + y26,38 + y26,39 + y26,40 - x26 = 1
 + y27,1 + y27,2 + y27,3 + y27,4 + y27,5 + y27,6 + y27,7 + y27,8 + y27,9 + y27,10 + y27,11 + y27,12 + y27,13 + y27,14 + y27,15 + y27,16 + y27,17 + y27,18 + y27,19 + y27,20 + y27,21 + y27,22 + y27,23 + y27,24 + y27,25 + y27,26 + y27,27 + y27,28 + y27,29 + y27,30 + y27,31 + y27,32 + y27,33 + y27,34 + y27,35 + y27,36 + y27,37 + y27,38 + y27,39 + y27,40 - x27 = 1
 + y28,1 + y28,2 + y28,3 + y28,4 + y28,5 + y28,6 + y28,7 + y28,8 + y28,9 + y28,10 + y28,11 + y28,12 + y28,13 + y28,14 + y28,15 + y28,16 + y28,17 + y28,18 + y28,19 + y28,20 + y28,21 + y28,22 + y28,23 + y28,24 + y28,25 + y28,26 + y28,27 + y28,28 + y28,29 + y28,30 + y28,31 + y28,32 + y28,33 + y28,34 + y28,35 + y28,36 + y28,37 + y28,38 + y28,39 + y28,40 - x28 = 1
 + y29,1 + y29,2 + y29,3 + y29,4 + y29,5 + y29,6 + y29,7 + y29,8 + y29,9 + y29,10 + y29,11 + y29,12 + y29,13 + y29,14 + y29,15 + y29,16 + y29,17 + y29,18 + y29,19 + y29,20 + y29,21 + y29,22 + y29,23 + y29,24 + y29,25 + y29,26 + y29,27 + y29,28 + y29,29 + y29,30 + y29,31 + y29,32 + y29,33 + y29,34 + y29,35 + y29,36 + y29,37 + y29,38 + y29,39 + y29,40 - x29 = 1
 + y30,1 + y30,2 + y30,3 + y30,4 + y30,5 + y30,6 + y30,7 + y30,8 + y30,9 + y30,10 + y30,11 + y30,12 + y30,13 + y30,14 + y30,15 + y30,16 + y30,17 + y30,18 + y30,19 + y30,20 + y30,21 + y30,22 + y30,23 + y30,24 + y30,25 + y30,26 + y30,27 + y30,28 + y30,29 + y30,30 + y30,31 + y30,32 + y30,33 + y30,34 + y30,35 + y30,36 + y30,37 + y30,38 + y30,39 + y30,40 - x30 = 1
 + y31,1 + y31,2 + y31,3 + y31,4 + y31,5 + y31,6 + y31,7 + y31,8 + y31,9 + y31,10 + y31,11 + y31,12 + y31,13 + y31,14 + y31,15 + y31,16 + y31,17 + y31,18 + y31,19 + y31,20 + y31,21 + y31,22 + y31,23 + y31,24 + y31,25 + y31,26 + y31,27 + y31,28 + y31,29 + y31,30 + y31,31 + y31,32 + y31,33 + y31,34 + y31,35 + y31,36 + y31,37 + y31,38 + y31,39 + y31,40 - x31 = 1
 + y32,1 + y32,2 + y32,3 + y32,4 + y32,5 + y32,6 + y32,7 + y32,8 + y32,9 + y32,10 + y32,11 + y32,12 + y32,13 + y32,14 + y32,15 + y32,16 + y32,17 + y32,18 + y32,19 + y32,20 + y32,21 + y32,22 + y32,23 + y32,24 + y32,25 + y32,26 + y32,27 + y32,28 + y32,29 + y32,30 + y32,31 + y32,32 + y32,33 + y32,34 + y32,35 + y32,36 + y32,37 + y32,38 + y32,39 + y32,40 - x32 = 1
 + y33,1 + y33,2 + y33,3 + y33,4 + y33,5 + y33,6 + y33,7 + y33,8 + y33,9 + y33,10 + y33,11 + y33,12 + y33,13 + y33,14 + y33,15 + y33,16 + y33,17 + y33,18 + y33,19 + y33,20 + y33,21 + y33,22 + y33,23 + y33,24 + y33,25 + y33,26 + y33,27 + y33,28 + y33,29 + y33,30 + y33,31 + y33,32 + y33,33 + y33,34 + y33,35 + y33,36 + y33,37 + y33,38 + y33,39 + y33,40 - x33 = 1
 + y34,1 + y34,2 + y34,3 + y34,4 + y34,5 + y34,6 + y34,7 + y34,8 + y34,9 + y34,10 + y34,11 + y34,12 + y34,13 + y34,14 + y34,15 + y34,16 + y34,17 + y34,18 + y34,19 + y34,20 + y34,21 + y34,22 + y34,23 + y34,24 + y34,25 + y34,26 + y34,27 + y34,28 + y34,29 + y34,30 + y34,31 + y34,32 + y34,33 + y34,34 + y34,35 + y34,36 + y34,37 + y34,38 + y34,39 + y34,40 - x34 = 1
 + y35,1 + y35,2 + y35,3 + y35,4 + y35,5 + y35,6 + y35,7 + y35,8 + y35,9 + y35,10 + y35,11 + y35,12 + y35,13 + y35,14 + y35,15 + y35,16 + y35,17 + y35,18 + y35,19 + y35,20 + y35,21 + y35,22 + y35,23 + y35,24 + y35,25 + y35,26 + y35,27 + y35,28 + y35,29 + y35,30 + y35,31 + y35,32 + y35,33 + y35,34 + y35,35 + y35,36 + y35,37 + y35,38 + y35,39 + y35,40 - x35 = 1
 + y36,1 + y36,2 + y36,3 + y36,4 + y36,5 + y36,6 + y36,7 + y36,8 + y36,9 + y36,10 + y36,11 + y36,12 + y36,13 + y36,14 + y36,15 + y36,16 + y36,17 + y36,18 + y36,19 + y36,20 + y36,21 + y36,22 + y36,23 + y36,24 + y36,25 + y36,26 + y36,27 + y36,28 + y36,29 + y36,30 + y36,31 + y36,32 + y36,33 + y36,34 + y36,35 + y36,36 + y36,37 + y36,38 + y36,39 + y36,40 - x36 = 1
 + y37,1 + y37,2 + y37,3 + y37,4 + y37,5 + y37,6 + y37,7 + y37,8 + y37,9 + y37,10 + y37,11 + y37,12 + y37,13 + y37,14 + y37,15 + y37,16 + y37,17 + y37,18 + y37,19 + y37,20 + y37,21 + y37,22 + y37,23 + y37,24 + y37,25 + y37,26 + y37,27 + y37,28 + y37,29 + y37,30 + y37,31 + y37,32 + y37,33 + y37,34 + y37,35 + y37,36 + y37,37 + y37,38 + y37,39 + y37,40 - x37 = 1
 + y38,1 + y38,2 + y38,3 + y38,4 + y38,5 + y38,6 + y38,7 + y38,8 + y38,9 + y38,10 + y38,11 + y38,12 + y38,13 + y38,14 + y38,15 + y38,16 + y38,17 + y38,18 + y38,19 + y38,20 + y38,21 + y38,22 + y38,23 + y38,24 + y38,25 + y38,26 + y38,27 + y38,28 + y38,29 + y38,30 + y38,31 + y38,32 + y38,33 + y38,34 + y38,35 + y38,36 + y38,37 + y38,38 + y38,39 + y38,40 - x38 = 1
 + y39,1 + y39,2 + y39,3 + y39,4 + y39,5 + y39,6 + y39,7 + y39,8 + y39,9 + y39,10 + y39,11 + y39,12 + y39,13 + y39,14 + y39,15 + y39,16 + y39,17 + y39,18 + y39,19 + y39,20 + y39,21 + y39,22 + y39,23 + y39,24 + y39,25 + y39,26 + y39,27 + y39,28 + y39,29 + y39,30 + y39,31 + y39,32 + y39,33 + y39,34 + y39,35 + y39,36 + y39,37 + y39,38 + y39,39 + y39,40 - x39 = 1
 + y40,1 + y40,2 + y40,3 + y40,4 + y40,5 + y40,6 + y40,7 + y40,8 + y40,9 + y40,10 + y40,11 + y40,12 + y40,13 + y40,14 + y40,15 + y40,16 + y40,17 + y40,18 + y40,19 + y40,20 + y40,21 + y40,22 + y40,23 + y40,24 + y40,25 + y40,26 + y40,27 + y40,28 + y40,29 + y40,30 + y40,31 + y40,32 + y40,33 + y40,34 + y40,35 + y40,36 + y40,37 + y40,38 + y40,39 + y40,40 - x40 = 1
Binary
 x1
 y1,1
 y1,2
 y1,3
 y1,4
 y1,5
 y1,6
 y1,7
 y1,8
 y1,9
 y1,10
 y1,11
 y1,12
 y1,13
 y1,14
 y1,15
 y1,16
 y1,17
 y1,18
 y1,19
 y1,20
 y1,21
 y1,22
 y1,23
 y1,24
 y1,25
 y1,26
 y1,27
 y1,28
 y1,29
 y1,30
 y1,31
 y1,32
 y1,33
 y1,34
 y1,35
 y1,36
 y1,37
 y1,38
 y1,39
 y1,40
 x2
 y2,1
 y2,2
 y2,3
 y2,4
 y2,5
 y2,6
 y2,7
 y2,8
 y2,9
 y2,10
 y2,11
 y2,12
 y2,13
 y2,14
 y2,15
 y2,16
 y2,17
 y2,18
 y2,19
 y2,20
 y2,21
 y2,22
 y2,23
 y2,24
 y2,25
 y2,26
 y2,27
 y2,28
 y2,29
 y2,30
 y2,31
 y2,32
 y2,33
 y2,34
 y2,35
 y2,36
 y2,37
 y2,38
 y2,39
 y2,40
 x3
 y3,1
 y3,2
 y3,3
 y3,4
 y3,5
 y3,6
 y3,7
 y3,8
 y3,9
 y3,10
 y3,11
 y3,12
 y3,13
 y3,14
 y3,15
 y3,16
 y3,17
 y3,18
 y3,19
 y3,20
 y3,21
 y3,22
 y3,23
 y3,24
 y3,25
 y3,26
 y3,27
 y3,28
 y3,29
 y3,30
 y3,31
 y3,32
 y3,33
 y3,34
 y3,35
 y3,36
 y3,37
 y3,38
 y3,39
 y3,40
 x4
 y4,1
 y4,2
 y4,3
 y4,4
 y4,5
 y4,6
 y4,7
 y4,8
 y4,9
 y4,10
 y4,11
 y4,12
 y4,13
 y4,14
 y4,15
 y4,16
 y4,17
 y4,18
 y4,19
 y4,20
 y4,21
 y4,22
 y4,23
 y4,24
 y4,25
 y4,26
 y4,27
 y4,28
 y4,29
 y4,30
 y4,31
 y4,32
 y4,33
 y4,34
 y4,35
 y4,36
 y4,37
 y4,38
 y4,39
 y4,40
 x5
 y5,1
 y5,2
 y5,3
 y5,4
 y5,5
 y5,6
 y5,7
 y5,8
 y5,9
 y5,10
 y5,11
 y5,12
 y5,13
 y5,14
 y5,15
 y5,16
 y5,17
 y5,18
 y5,19
 y5,20
 y5,21
 y5,22
 y5,23
 y5,24
 y5,25
 y5,26
 y5,27
 y5,28
 y5,29
 y5,30
 y5,31
 y5,32
 y5,33
 y5,34
 y5,35
 y5,36
 y5,37
 y5,38
 y5,39
 y5,40
 x6
 y6,1
 y6,2
 y6,3
 y6,4
 y6,5
 y6,6
 y6,7
 y6,8
 y6,9
 y6,10
 y6,11
 y6,12
 y6,13
 y6,14
 y6,15
 y6,16
 y6,17
 y6,18
 y6,19
 y6,20
 y6,21
 y6,22
 y6,23
 y6,24
 y6,25
 y6,26
 y6,27
 y6,28
 y6,29
 y6,30
 y6,31
 y6,32
 y6,33
 y6,34
 y6,35
 y6,36
 y6,37
 y6,38
 y6,39
 y6,40
 x7
 y7,1
 y7,2
 y7,3
 y7,4
 y7,5
 y7,6
 y7,7
 y7,8
 y7,9
 y7,10
 y7,11
 y7,12
 y7,13
 y7,14
 y7,15
 y7,16
 y7,17
 y7,18
 y7,19
 y7,20
 y7,21
 y7,22
 y7,23
 y7,24
 y7,25
 y7,26
 y7,27
 y7,28
 y7,29
 y7,30
 y7,31
 y7,32
 y7,33
 y7,34
 y7,35
 y7,36
 y7,37
 y7,38
 y7,39
 y7,40
 x8
 y8,1
 y8,2
 y8,3
 y8,4
 y8,5
 y8,6
 y8,7
 y8,8
 y8,9
 y8,10
 y8,11
 y8,12
 y8,13
 y8,14
 y8,15
 y8,16
 y8,17
 y8,18
 y8,19
 y8,20
 y8,21
 y8,22
 y8,23
 y8,24
 y8,25
 y8,26
 y8,27
 y8,28
 y8,29
 y8,30
 y8,31
 y8,32
 y8,33
 y8,34
 y8,35
 y8,36
 y8,37
 y8,38
 y8,39
 y8,40
 x9
 y9,1
 y9,2
 y9,3
 y9,4
 y9,5
 y9,6
 y9,7
 y9,8
 y9,9
 y9,10
 y9,11
 y9,12
 y9,13
 y9,14
 y9,15
 y9,16
 y9,17
 y9,18
 y9,19
 y9,20
 y9,21
 y9,22
 y9,23
 y9,24
 y9,25
 y9,26
 y9,27
 y9,28
 y9,29
 y9,30
 y9,31
 y9,32
 y9,33
 y9,34
 y9,35
 y9,36
 y9,37
 y9,38
 y9,39
 y9,40
 x10
 y10,1
 y10,2
 y10,3
 y10,4
 y10,5
 y10,6
 y10,7
 y10,8
 y10,9
 y10,10
 y10,11
 y10,12
 y10,13
 y10,14
 y10,15
 y10,16
 y10,17
 y10,18
 y10,19
 y10,20
 y10,21
 y10,22
 y10,23
 y10,24
 y10,25
 y10,26
 y10,27
 y10,28
 y10,29
 y10,30
 y10,31
 y10,32
 y10,33
 y10,34
 y10,35
 y10,36
 y10,37
 y10,38
 y10,39
 y10,40
 x11
 y11,1
 y11,2
 y11,3
 y11,4
 y11,5
 y11,6
 y11,7
 y11,8
 y11,9
 y11,10
 y11,11
 y11,12
 y11,13
 y11,14
 y11,15
 y11,16
 y11,17
 y11,18
 y11,19
 y11,20
 y11,21
 y11,22
 y11,23
 y11,24
 y11,25
 y11,26
 y11,27
 y11,28
 y11,29
 y11,30
 y11,31
 y11,32
 y11,33
 y11,34
 y11,35
 y11,36
 y11,37
 y11,38
 y11,39
 y11,40
 x12
 y12,1
 y12,2
 y12,3
 y12,4
 y12,5
 y12,6
 y12,7
 y12,8
 y12,9
 y12,10
 y12,11
 y12,12
 y12,13
 y12,14
 y12,15
 y12,16
 y12,17
 y12,18
 y12,19
 y12,20
 y12,21
 y12,22
 y12,23
 y12,24
 y12,25
 y12,26
 y12,27
 y12,28
 y12,29
 y12,30
 y12,31
 y12,32
 y12,33
 y12,34
 y12,35
 y12,36
 y12,37
 y12,38
 y12,39
 y12,40
 x13
 y13,1
 y13,2
 y13,3
 y13,4
 y13,5
 y13,6
 y13,7
 y13,8
 y13,9
 y13,10
 y13,11
 y13,12
 y13,13
 y13,14
 y13,15
 y13,16
 y13,17
 y13,18
 y13,19
 y13,20
 y13,21
 y13,22
 y13,23
 y13,24
 y13,25
 y13,26
 y13,27
 y13,28
 y13,29
 y13,30
 y13,31
 y13,32
 y13,33
 y13,34
 y13,35
 y13,36
 y13,37
 y13,38
 y13,39
 y13,40
 x14
 y14,1
 y14,2
 y14,3
 y14,4
 y14,5
 y14,6
 y14,7
 y14,8
 y14,9
 y14,10
 y14,11
 y14,12
 y14,13
 y14,14
 y14,15
 y14,16
 y14,17
 y14,18
 y14,19
 y14,20
 y14,21
 y14,22
 y14,23
 y14,24
 y14,25
 y14,26
 y14,27
 y14,28
 y14,29
 y14,30
 y14,31
 y14,32
 y14,33
 y14,34
 y14,35
 y14,36
 y14,37
 y14,38
 y14,39
 y14,40
 x15
 y15,1
 y15,2
 y15,3
 y15,4
 y15,5
 y15,6
 y15,7
 y15,8
 y15,9
 y15,10
 y15,11
 y15,12
 y15,13
 y15,14
 y15,15
 y15,16
 y15,17
 y15,18
 y15,19
 y15,20
 y15,21
 y15,22
 y15,23
 y15,24
 y15,25
 y15,26
 y15,27
 y15,28
 y15,29
 y15,30
 y15,31
 y15,32
 y15,33
 y15,34
 y15,35
 y15,36
 y15,37
 y15,38
 y15,39
 y15,40
 x16
 y16,1
 y16,2
 y16,3
 y16,4
 y16,5
 y16,6
 y16,7
 y16,8
 y16,9
 y16,10
 y16,11
 y16,12
 y16,13
 y16,14
 y16,15
 y16,16
 y16,17
 y16,18
 y16,19
 y16,20
 y16,21
 y16,22
 y16,23
 y16,24
 y16,25
 y16,26
 y16,27
 y16,28
 y16,29
 y16,30
 y16,31
 y16,32
 y16,33
 y16,34
 y16,35
 y16,36
 y16,37
 y16,38
 y16,39
 y16,40
 x17
 y17,1
 y17,2
 y17,3
 y17,4
 y17,5
 y17,6
 y17,7
 y17,8
 y17,9
 y17,10
 y17,11
 y17,12
 y17,13
 y17,14
 y17,15
 y17,16
 y17,17
 y17,18
 y17,19
 y17,20
 y17,21
 y17,22
 y17,23
 y17,24
 y17,25
 y17,26
 y17,27
 y17,28
 y17,29
 y17,30
 y17,31
 y17,32
 y17,33
 y17,34
 y17,35
 y17,36
 y17,37
 y17,38
 y17,39
 y17,40
 x18
 y18,1
 y18,2
 y18,3
 y18,4
 y18,5
 y18,6
 y18,7
 y18,8
 y18,9
 y18,10
 y18,11
 y18,12
 y18,13
 y18,14
 y18,15
 y18,16
 y18,17
 y18,18
 y18,19
 y18,20
 y18,21
 y18,22
 y18,23
 y18,24
 y18,25
 y18,26
 y18,27
 y18,28
 y18,29
 y18,30
 y18,31
 y18,32
 y18,33
 y18,34
 y18,35
 y18,36
 y18,37
 y18,38
 y18,39
 y18,40
 x19
 y19,1
 y19,2
 y19,3
 y19,4
 y19,5
 y19,6
 y19,7
 y19,8
 y19,9
 y19,10
 y19,11
 y19,12
 y19,13
 y19,14
 y19,15
 y19,16
 y19,17
 y19,18
 y19,19
 y19,20
 y19,21
 y19,22
 y19,23
 y19,24
 y19,25
 y19,26
 y19,27
 y19,28
 y19,29
 y19,30
 y19,31
 y19,32
 y19,33
 y19,34
 y19,35
 y19,36
 y19,37
 y19,38
 y19,39
 y19,40
 x20
 y20,1
 y20,2
 y20,3
 y20,4
 y20,5
 y20,6
 y20,7
 y20,8
 y20,9
 y20,10
 y20,11
 y20,12
 y20,13
 y20,14
 y20,15
 y20,16
 y20,17
 y20,18
 y20,19
 y20,20
 y20,21
 y20,22
 y20,23
 y20,24
 y20,25
 y20,26
 y20,27
 y20,28
 y20,29
 y20,30
 y20,31
 y20,32
 y20,33
 y20,34
 y20,35
 y20,36
 y20,37
 y20,38
 y20,39
 y20,40
 x21
 y21,1
 y21,2
 y21,3
 y21,4
 y21,5
 y21,6
 y21,7
 y21,8
 y21,9
 y21,10
 y21,11
 y21,12
 y21,13
 y21,14
 y21,15
 y21,16
 y21,17
 y21,18
 y21,19
 y21,20
 y21,21
 y21,22
 y21,23
 y21,24
 y21,25
 y21,26
 y21,27
 y21,28
 y21,29
 y21,30
 y21,31
 y21,32
 y21,33
 y21,34
 y21,35
 y21,36
 y21,37
 y21,38
 y21,39
 y21,40
 x22
 y22,1
 y22,2
 y22,3
 y22,4
 y22,5
 y22,6
 y22,7
 y22,8
 y22,9
 y22,10
 y22,11
 y22,12
 y22,13
 y22,14
 y22,15
 y22,16
 y22,17
 y22,18
 y22,19
 y22,20
 y22,21
 y22,22
 y22,23
 y22,24
 y22,25
 y22,26
 y22,27
 y22,28
 y22,29
 y22,30
 y22,31
 y22,32
 y22,33
 y22,34
 y22,35
 y22,36
 y22,37
 y22,38
 y22,39
 y22,40
 x23
 y23,1
 y23,2
 y23,3
 y23,4
 y23,5
 y23,6
 y23,7
 y23,8
 y23,9
 y23,10
 y23,11
 y23,12
 y23,13
 y23,14
 y23,15
 y23,16
 y23,17
 y23,18
 y23,19
 y23,20
 y23,21
 y23,22
 y23,23
 y23,24
 y23,25
 y23,26
 y23,27
 y23,28
 y23,29
 y23,30
 y23,31
 y23,32
 y23,33
 y23,34
 y23,35
 y23,36
 y23,37
 y23,38
 y23,39
 y23,40
 x24
 y24,1
 y24,2
 y24,3
 y24,4
 y24,5
 y24,6
 y24,7
 y24,8
 y24,9
 y24,10
 y24,11
 y24,12
 y24,13
 y24,14
 y24,15
 y24,16
 y24,17
 y24,18
 y24,19
 y24,20
 y24,21
 y24,22
 y24,23
 y24,24
 y24,25
 y24,26
 y24,27
 y24,28
 y24,29
 y24,30
 y24,31
 y24,32
 y24,33
 y24,34
 y24,35
 y24,36
 y24,37
 y24,38
 y24,39
 y24,40
 x25
 y25,1
 y25,2
 y25,3
 y25,4
 y25,5
 y25,6
 y25,7
 y25,8
 y25,9
 y25,10
 y25,11
 y25,12
 y25,13
 y25,14
 y25,15
 y25,16
 y25,17
 y25,18
 y25,19
 y25,20
 y25,21
 y25,22
 y25,23
 y25,24
 y25,25
 y25,26
 y25,27
 y25,28
 y25,29
 y25,30
 y25,31
 y25,32
 y25,33
 y25,34
 y25,35
 y25,36
 y25,37
 y25,38
 y25,39
 y25,40
 x26
 y26,1
 y26,2
 y26,3
 y26,4
 y26,5
 y26,6
 y26,7
 y26,8
 y26,9
 y26,10
 y26,11
 y26,12
 y26,13
 y26,14
 y26,15
 y26,16
 y26,17
 y26,18
 y26,19
 y26,20
 y26,21
 y26,22
 y26,23
 y26,24
 y26,25
 y26,26
 y26,27
 y26,28
 y26,29
 y26,30
 y26,31
 y26,32
 y26,33
 y26,34
 y26,35
 y26,36
 y26,37
 y26,38
 y26,39
 y26,40
 x27
 y27,1
 y27,2
 y27,3
 y27,4
 y27,5
 y27,6
 y27,7
 y27,8
 y27,9
 y27,10
 y27,11
 y27,12
 y27,13
 y27,14
 y27,15
 y27,16
 y27,17
 y27,18
 y27,19
 y27,20
 y27,21
 y27,22
 y27,23
 y27,24
 y27,25
 y27,26
 y27,27
 y27,28
 y27,29
 y27,30
 y27,31
 y27,32
 y27,33
 y27,34
 y27,35
 y27,36
 y27,37
 y27,38
 y27,39
 y27,40
 x28
 y28,1
 y28,2
 y28,3
 y28,4
 y28,5
 y28,6
 y28,7
 y28,8
 y28,9
 y28,10
 y28,11
 y28,12
 y28,13
 y28,14
 y28,15
 y28,16
 y28,17
 y28,18
 y28,19
 y28,20
 y28,21
 y28,22
 y28,23
 y28,24
 y28,25
 y28,26
 y28,27
 y28,28
 y28,29
 y28,30
 y28,31
 y28,32
 y28,33
 y28,34
 y28,35
 y28,36
 y28,37
 y28,38
 y28,39
 y28,40
 x29
 y29,1
 y29,2
 y29,3
 y29,4
 y29,5
 y29,6
 y29,7
 y29,8
 y29,9
 y29,10
 y29,11
 y29,12
 y29,13
 y29,14
 y29,15
 y29,16
 y29,17
 y29,18
 y29,19
 y29,20
 y29,21
 y29,22
 y29,23
 y29,24
 y29,25
 y29,26
 y29,27
 y29,28
 y29,29
 y29,30
 y29,31
 y29,32
 y29,33
 y29,34
 y29,35
 y29,36
 y29,37
 y29,38
 y29,39
 y29,40
 x30
 y30,1
 y30,2
 y30,3
 y30,4
 y30,5
 y30,6
 y30,7
 y30,8
 y30,9
 y30,10
 y30,11
 y30,12
 y30,13
 y30,14
 y30,15
 y30,16
 y30,17
 y30,18
 y30,19
 y30,20
 y30,21
 y30,22
 y30,23
 y30,24
 y30,25
 y30,26
 y30,27
 y30,28
 y30,29
 y30,30
 y30,31
 y30,32
 y30,33
 y30,34
 y30,35
 y30,36
 y30,37
 y30,38
 y30,39
 y30,40
 x31
 y31,1
 y31,2
 y31,3
 y31,4
 y31,5
 y31,6
 y31,7
 y31,8
 y31,9
 y31,10
 y31,11
 y31,12
 y31,13
 y31,14
 y31,15
 y31,16
 y31,17
 y31,18
 y31,19
 y31,20
 y31,21
 y31,22
 y31,23
 y31,24
 y31,25
 y31,26
 y31,27
 y31,28
 y31,29
 y31,30
 y31,31
 y31,32
 y31,33
 y31,34
 y31,35
 y31,36
 y31,37
 y31,38
 y31,39
 y31,40
 x32
 y32,1
 y32,2
 y32,3
 y32,4
 y32,5
 y32,6
 y32,7
 y32,8
 y32,9
 y32,10
 y32,11
 y32,12
 y32,13
 y32,14
 y32,15
 y32,16
 y32,17
 y32,18
 y32,19
 y32,20
 y32,21
 y32,22
 y32,23
 y32,24
 y32,25
 y32,26
 y32,27
 y32,28
 y32,29
 y32,30
 y32,31
 y32,32
 y32,33
 y32,34
 y32,35
 y32,36
 y32,37
 y32,38
 y32,39
 y32,40
 x33
 y33,1
 y33,2
 y33,3
 y33,4
 y33,5
 y33,6
 y33,7
 y33,8
 y33,9
 y33,10
 y33,11
 y33,12
 y33,13
 y33,14
 y33,15
 y33,16
 y33,17
 y33,18
 y33,19
 y33,20
 y33,21
 y33,22
 y33,23
 y33,24
 y33,25
 y33,26
 y33,27
 y33,28
 y33,29
 y33,30
 y33,31
 y33,32
 y33,33
 y33,34
 y33,35
 y33,36
 y33,37
 y33,38
 y33,39
 y33,40
 x34
 y34,1
 y34,2
 y34,3
 y34,4
 y34,5
 y34,6
 y34,7
 y34,8
 y34,9
 y34,10
 y34,11
 y34,12
 y34,13
 y34,14
 y34,15
 y34,16
 y34,17
 y34,18
 y34,19
 y34,20
 y34,21
 y34,22
 y34,23
 y34,24
 y34,25
 y34,26
 y34,27
 y34,28
 y34,29
 y34,30
 y34,31
 y34,32
 y34,33
 y34,34
 y34,35
 y34,36
 y34,37
 y34,38
 y34,39
 y34,40
 x35
 y35,1
 y35,2
 y35,3
 y35,4
 y35,5
 y35,6
 y35,7
 y35,8
 y35,9
 y35,10
 y35,11
 y35,12
 y35,13
 y35,14
 y35,15
 y35,16
 y35,17
 y35,18
 y35,19
 y35,20
 y35,21
 y35,22
 y35,23
 y35,24
 y35,25
 y35,26
 y35,27
 y35,28
 y35,29
 y35,30
 y35,31
 y35,32
 y35,33
 y35,34
 y35,35
 y35,36
 y35,37
 y35,38
 y35,39
 y35,40
 x36
 y36,1
 y36,2
 y36,3
 y36,4
 y36,5
 y36,6
 y36,7
 y36,8
 y36,9
 y36,10
 y36,11
 y36,12
 y36,13
 y36,14
 y36,15
 y36,16
 y36,17
 y36,18
 y36,19
 y36,20
 y36,21
 y36,22
 y36,23
 y36,24
 y36,25
 y36,26
 y36,27
 y36,28
 y36,29
 y36,30
 y36,31
 y36,32
 y36,33
 y36,34
 y36,35
 y36,36
 y36,37
 y36,38
 y36,39
 y36,40
 x37
 y37,1
 y37,2
 y37,3
 y37,4
 y37,5
 y37,6
 y37,7
 y37,8
 y37,9
 y37,10
 y37,11
 y37,12
 y37,13
 y37,14
 y37,15
 y37,16
 y37,17
 y37,18
 y37,19
 y37,20
 y37,21
 y37,22
 y37,23
 y37,24
 y37,25
 y37,26
 y37,27
 y37,28
 y37,29
 y37,30
 y37,31
 y37,32
 y37,33
 y37,34
 y37,35
 y37,36
 y37,37
 y37,38
 y37,39
 y37,40
 x38
 y38,1
 y38,2
 y38,3
 y38,4
 y38,5
 y38,6
 y38,7
 y38,8
 y38,9
 y38,10
 y38,11
 y38,12
 y38,13
 y38,14
 y38,15
 y38,16
 y38,17
 y38,18
 y38,19
 y38,20
 y38,21
 y38,22
 y38,23
 y38,24
 y38,25
 y38,26
 y38,27
 y38,28
 y38,29
 y38,30
 y38,31
 y38,32
 y38,33
 y38,34
 y38,35
 y38,36
 y38,37
 y38,38
 y38,39
 y38,40
 x39
 y39,1
 y39,2
 y39,3
 y39,4
 y39,5
 y39,6
 y39,7
 y39,8
 y39,9
 y39,10
 y39,11
 y39,12
 y39,13
 y39,14
 y39,15
 y39,16
 y39,17
 y39,18
 y39,19
 y39,20
 y39,21
 y39,22
 y39,23
 y39,24
 y39,25
 y39,26
 y39,27
 y39,28
 y39,29
 y39,30
 y39,31
 y39,32
 y39,33
 y39,34
 y39,35
 y39,36
 y39,37
 y39,38
 y39,39
 y39,40
 x40
 y40,1
 y40,2
 y40,3
 y40,4
 y40,5
 y40,6
 y40,7
 y40,8
 y40,9
 y40,10
 y40,11
 y40,12
 y40,13
 y40,14
 y40,15
 y40,16
 y40,17
 y40,18
 y40,19
 y40,20
 y40,21
 y40,22
 y40,23
 y40,24
 y40,25
 y40,26
 y40,27
 y40,28
 y40,29
 y40,30
 y40,31
 y40,32
 y40,33
 y40,34
 y40,35
 y40,36
 y40,37
 y40,38
 y40,39
 y40,40
End
